(set-option :auto-config false)
(set-option :model true)
(set-option :model.partial false)
(set-option :smt.mbqi false)
(define-sort SMT_Elt () Int)
(define-sort SMT_Set () (Array SMT_Elt Bool))
(define-fun smt_set_emp () SMT_Set ((as const SMT_Set) false))
(define-fun smt_set_mem ((x SMT_Elt) (s SMT_Set)) Bool (select s x))
(define-fun smt_set_add ((s SMT_Set) (x SMT_Elt)) SMT_Set (store s x true))
(define-fun smt_set_cup ((s1 SMT_Set) (s2 SMT_Set)) SMT_Set ((_ map or) s1 s2))
(define-fun smt_set_cap ((s1 SMT_Set) (s2 SMT_Set)) SMT_Set ((_ map and) s1 s2))
(define-fun smt_set_com ((s SMT_Set)) SMT_Set ((_ map not) s))
(define-fun smt_set_dif ((s1 SMT_Set) (s2 SMT_Set)) SMT_Set (smt_set_cap s1 (smt_set_com s2)))
(define-fun smt_set_sub ((s1 SMT_Set) (s2 SMT_Set)) Bool (= smt_set_emp (smt_set_dif s1 s2)))
(declare-fun z3v63 () Int)
(declare-fun z3v64 () Int)
(assert (distinct z3v63 z3v64))
(declare-fun z3v65 () Int)
(declare-fun z3v66 () Int)
(declare-fun z3v67 () Int)
(declare-fun z3f68 (Int) Bool)
(declare-fun z3v69 () Int)
(declare-fun z3f70 (Int) Int)
(declare-fun z3v71 () Int)
(declare-fun z3v72 () Int)
(push 1)
(assert true)
(assert (and (= z3v67 z3v66) (z3f68 z3v63) (= (z3f70 z3v69) z3v69) (= (z3f70 z3v71) z3v71) (not (z3f68 z3v64)) (= (z3f70 z3v72) z3v72)))
(declare-fun z3v73 () Int)
(push 1)
(assert (not (= z3v73 1)))
(check-sat)
(pop 1)
(push 1)
(assert (not (>= z3v73 0)))
(check-sat)
(pop 1)
(push 1)
(assert (not (>  z3v73 0)))
(check-sat)
(pop 1)
(push 1)
(assert (not (<  z3v73 0)))
(check-sat)
(pop 1)
(push 1)
(assert (not (not (= z3v73 0))))
(check-sat)
(pop 1)
(push 1)
(assert (not (<= z3v73 0)))
(check-sat)
(pop 1)
(push 1)
(assert (not (= z3v73 0)))
(check-sat)
(pop 1)
(pop 1)
(declare-fun z3v74 () Int)
(declare-fun z3f75 (Int) Int)
(declare-fun z3v76 () Int)
(declare-fun z3v77 () Int)
(declare-fun z3v78 () Int)
(declare-fun z3v79 () Int)
(declare-fun z3v80 () Int)
(declare-fun z3v81 () Int)
(declare-fun z3v82 () Int)
(push 1)
(assert true)
(assert (= z3v82 z3v76))
(assert (>= (z3f75 z3v82) 0))
(assert (and (>= (z3f75 z3v74) 0) (>= (z3f75 z3v76) 0) (= z3v79 (- z3v78 z3v77)) (= z3v77 1) (= z3v78 (z3f75 z3v74)) (= z3v80 1) (>= (z3f75 z3v81) 0) (= z3v81 z3v76) (>= (z3f75 z3v81) 0) (z3f68 z3v63) (= (z3f70 z3v69) z3v69) (= (z3f70 z3v71) z3v71) (not (z3f68 z3v64)) (= (z3f70 z3v72) z3v72)))
(push 1)
(assert (not (= (z3f75 z3v82) 0)))
(check-sat)
(pop 1)
(push 1)
(assert (not (>  (z3f75 z3v82) 0)))
(check-sat)
(pop 1)
(push 1)
(assert (not (>  (z3f75 z3v82) (z3f75 z3v74))))
(check-sat)
(pop 1)
(push 1)
(assert (not (= (z3f75 z3v82) (z3f75 z3v74))))
(check-sat)
(pop 1)
(push 1)
(assert (not (<  (z3f75 z3v82) (z3f75 z3v74))))
(check-sat)
(pop 1)
(push 1)
(assert (not (<= (z3f75 z3v82) (z3f75 z3v74))))
(check-sat)
(pop 1)
(push 1)
(assert (not (>= (z3f75 z3v82) (z3f75 z3v74))))
(check-sat)
(pop 1)
(pop 1)
(push 1)
(assert true)
(assert (and (>= (z3f75 z3v74) 0) (>= (z3f75 z3v76) 0) (= z3v79 (- z3v78 z3v77)) (= z3v77 1) (= z3v78 (z3f75 z3v74)) (= z3v80 1) (>= (z3f75 z3v81) 0) (= z3v81 z3v76) (>= (z3f75 z3v81) 0) (z3f68 z3v63) (= (z3f70 z3v69) z3v69) (= (z3f70 z3v71) z3v71) (not (z3f68 z3v64)) (= (z3f70 z3v72) z3v72)))
(declare-fun z3v83 () Int)
(declare-fun z3v84 () Int)
(push 1)
(assert (not (= z3v84 1)))
(check-sat)
(pop 1)
(push 1)
(assert (not (= z3v84 (+ (z3f75 z3v74) z3v83))))
(check-sat)
(pop 1)
(push 1)
(assert (not (= z3v84 (z3f75 z3v74))))
(check-sat)
(pop 1)
(push 1)
(assert (not (>= z3v84 0)))
(check-sat)
(pop 1)
(push 1)
(assert (not (>  z3v84 0)))
(check-sat)
(pop 1)
(push 1)
(assert (not (<  z3v84 0)))
(check-sat)
(pop 1)
(push 1)
(assert (not (not (= z3v84 0))))
(check-sat)
(pop 1)
(push 1)
(assert (not (<= z3v84 0)))
(check-sat)
(pop 1)
(push 1)
(assert (not (= z3v84 0)))
(check-sat)
(pop 1)
(push 1)
(assert (not (>= z3v84 z3v83)))
(check-sat)
(pop 1)
(push 1)
(assert (not (not (= z3v84 z3v83))))
(check-sat)
(pop 1)
(push 1)
(assert (not (>  z3v84 z3v83)))
(check-sat)
(pop 1)
(push 1)
(assert (not (<  z3v84 z3v83)))
(check-sat)
(pop 1)
(push 1)
(assert (not (>  z3v84 z3v83)))
(check-sat)
(pop 1)
(push 1)
(assert (not (<= z3v84 z3v83)))
(check-sat)
(pop 1)
(push 1)
(assert (not (= z3v84 z3v83)))
(check-sat)
(pop 1)
(push 1)
(assert (not (not (= z3v84 z3v83))))
(check-sat)
(pop 1)
(push 1)
(assert (not (>= z3v84 z3v83)))
(check-sat)
(pop 1)
(push 1)
(assert (not (<= z3v84 z3v83)))
(check-sat)
(pop 1)
(push 1)
(assert (not (= z3v84 z3v83)))
(check-sat)
(pop 1)
(push 1)
(assert (not (<  z3v84 z3v83)))
(check-sat)
(pop 1)
(pop 1)
(push 1)
(assert true)
(assert (and (>= (z3f75 z3v74) 0) (>= (z3f75 z3v76) 0) (= z3v79 (- z3v78 z3v77)) (= z3v77 1) (= z3v78 (z3f75 z3v74)) (= z3v80 1) (>= (z3f75 z3v81) 0) (= z3v81 z3v76) (>= (z3f75 z3v81) 0) (z3f68 z3v63) (= (z3f70 z3v69) z3v69) (= (z3f70 z3v71) z3v71) (not (z3f68 z3v64)) (= (z3f70 z3v72) z3v72)))
(declare-fun z3v85 () Int)
(push 1)
(assert (not (= z3v85 1)))
(check-sat)
(pop 1)
(push 1)
(assert (not (= z3v85 (z3f75 z3v74))))
(check-sat)
(pop 1)
(push 1)
(assert (not (= z3v85 (z3f75 z3v81))))
(check-sat)
(pop 1)
(push 1)
(assert (not (>= z3v85 0)))
(check-sat)
(pop 1)
(push 1)
(assert (not (>  z3v85 0)))
(check-sat)
(pop 1)
(push 1)
(assert (not (<  z3v85 0)))
(check-sat)
(pop 1)
(push 1)
(assert (not (not (= z3v85 0))))
(check-sat)
(pop 1)
(push 1)
(assert (not (<= z3v85 0)))
(check-sat)
(pop 1)
(push 1)
(assert (not (= z3v85 0)))
(check-sat)
(pop 1)
(pop 1)
(push 1)
(assert true)
(assert (and (z3f68 z3v63) (= (z3f70 z3v69) z3v69) (= (z3f70 z3v71) z3v71) (not (z3f68 z3v64)) (= (z3f70 z3v72) z3v72)))
(declare-fun z3v86 () Int)
(push 1)
(assert (not (= z3v86 1)))
(check-sat)
(pop 1)
(push 1)
(assert (not (>= z3v86 0)))
(check-sat)
(pop 1)
(push 1)
(assert (not (>  z3v86 0)))
(check-sat)
(pop 1)
(push 1)
(assert (not (<  z3v86 0)))
(check-sat)
(pop 1)
(push 1)
(assert (not (not (= z3v86 0))))
(check-sat)
(pop 1)
(push 1)
(assert (not (<= z3v86 0)))
(check-sat)
(pop 1)
(push 1)
(assert (not (= z3v86 0)))
(check-sat)
(pop 1)
(pop 1)
(declare-fun z3v87 () Int)
(declare-fun z3v88 () Int)
(push 1)
(assert true)
(assert (and (= z3v88 z3v87) (z3f68 z3v63) (= (z3f70 z3v69) z3v69) (= (z3f70 z3v71) z3v71) (not (z3f68 z3v64)) (= (z3f70 z3v72) z3v72)))
(declare-fun z3v89 () Int)
(declare-fun z3v90 () Int)
(push 1)
(assert (not (= z3v90 1)))
(check-sat)
(pop 1)
(push 1)
(assert (not (>= z3v90 0)))
(check-sat)
(pop 1)
(push 1)
(assert (not (>  z3v90 0)))
(check-sat)
(pop 1)
(push 1)
(assert (not (<  z3v90 0)))
(check-sat)
(pop 1)
(push 1)
(assert (not (not (= z3v90 0))))
(check-sat)
(pop 1)
(push 1)
(assert (not (<= z3v90 0)))
(check-sat)
(pop 1)
(push 1)
(assert (not (= z3v90 0)))
(check-sat)
(pop 1)
(push 1)
(assert (not (>= z3v90 z3v89)))
(check-sat)
(pop 1)
(push 1)
(assert (not (not (= z3v90 z3v89))))
(check-sat)
(pop 1)
(push 1)
(assert (not (>  z3v90 z3v89)))
(check-sat)
(pop 1)
(push 1)
(assert (not (<  z3v90 z3v89)))
(check-sat)
(pop 1)
(push 1)
(assert (not (>  z3v90 z3v89)))
(check-sat)
(pop 1)
(push 1)
(assert (not (<= z3v90 z3v89)))
(check-sat)
(pop 1)
(push 1)
(assert (not (= z3v90 z3v89)))
(check-sat)
(pop 1)
(push 1)
(assert (not (not (= z3v90 z3v89))))
(check-sat)
(pop 1)
(push 1)
(assert (not (>= z3v90 z3v89)))
(check-sat)
(pop 1)
(push 1)
(assert (not (<= z3v90 z3v89)))
(check-sat)
(pop 1)
(push 1)
(assert (not (= z3v90 z3v89)))
(check-sat)
(pop 1)
(push 1)
(assert (not (<  z3v90 z3v89)))
(check-sat)
(pop 1)
(pop 1)
(push 1)
(assert true)
(assert (and (z3f68 z3v63) (= (z3f70 z3v69) z3v69) (= (z3f70 z3v71) z3v71) (not (z3f68 z3v64)) (= (z3f70 z3v72) z3v72)))
(declare-fun z3v91 () Int)
(declare-fun z3v92 () Int)
(push 1)
(assert (not (= z3v92 1)))
(check-sat)
(pop 1)
(push 1)
(assert (not (>= z3v92 0)))
(check-sat)
(pop 1)
(push 1)
(assert (not (>  z3v92 0)))
(check-sat)
(pop 1)
(push 1)
(assert (not (<  z3v92 0)))
(check-sat)
(pop 1)
(push 1)
(assert (not (not (= z3v92 0))))
(check-sat)
(pop 1)
(push 1)
(assert (not (<= z3v92 0)))
(check-sat)
(pop 1)
(push 1)
(assert (not (= z3v92 0)))
(check-sat)
(pop 1)
(push 1)
(assert (not (>= z3v92 z3v91)))
(check-sat)
(pop 1)
(push 1)
(assert (not (not (= z3v92 z3v91))))
(check-sat)
(pop 1)
(push 1)
(assert (not (>  z3v92 z3v91)))
(check-sat)
(pop 1)
(push 1)
(assert (not (<  z3v92 z3v91)))
(check-sat)
(pop 1)
(push 1)
(assert (not (>  z3v92 z3v91)))
(check-sat)
(pop 1)
(push 1)
(assert (not (<= z3v92 z3v91)))
(check-sat)
(pop 1)
(push 1)
(assert (not (= z3v92 z3v91)))
(check-sat)
(pop 1)
(push 1)
(assert (not (not (= z3v92 z3v91))))
(check-sat)
(pop 1)
(push 1)
(assert (not (>= z3v92 z3v91)))
(check-sat)
(pop 1)
(push 1)
(assert (not (<= z3v92 z3v91)))
(check-sat)
(pop 1)
(push 1)
(assert (not (= z3v92 z3v91)))
(check-sat)
(pop 1)
(push 1)
(assert (not (<  z3v92 z3v91)))
(check-sat)
(pop 1)
(pop 1)
(declare-fun z3v93 () Int)
(declare-fun z3v94 () Int)
(push 1)
(assert true)
(assert (and (>= (z3f75 z3v93) 0) (>= (z3f75 z3v94) 0) (= z3v94 z3v93) (>= (z3f75 z3v94) 0) (z3f68 z3v63) (= (z3f70 z3v69) z3v69) (= (z3f70 z3v71) z3v71) (not (z3f68 z3v64)) (= (z3f70 z3v72) z3v72)))
(declare-fun z3v95 () Int)
(declare-fun z3v96 () Int)
(declare-fun z3v97 () Int)
(declare-fun z3v98 () Int)
(push 1)
(assert (not (= z3v96 1)))
(check-sat)
(pop 1)
(push 1)
(assert (not (>= z3v96 0)))
(check-sat)
(pop 1)
(push 1)
(assert (not (>  z3v96 0)))
(check-sat)
(pop 1)
(push 1)
(assert (not (<  z3v96 0)))
(check-sat)
(pop 1)
(push 1)
(assert (not (not (= z3v96 0))))
(check-sat)
(pop 1)
(push 1)
(assert (not (<= z3v96 0)))
(check-sat)
(pop 1)
(push 1)
(assert (not (= z3v96 0)))
(check-sat)
(pop 1)
(push 1)
(assert (not (>= z3v96 z3v98)))
(check-sat)
(pop 1)
(push 1)
(assert (not (>= z3v96 z3v97)))
(check-sat)
(pop 1)
(push 1)
(assert (not (>= z3v96 z3v95)))
(check-sat)
(pop 1)
(push 1)
(assert (not (not (= z3v96 z3v98))))
(check-sat)
(pop 1)
(push 1)
(assert (not (not (= z3v96 z3v97))))
(check-sat)
(pop 1)
(push 1)
(assert (not (not (= z3v96 z3v95))))
(check-sat)
(pop 1)
(push 1)
(assert (not (>  z3v96 z3v98)))
(check-sat)
(pop 1)
(push 1)
(assert (not (>  z3v96 z3v97)))
(check-sat)
(pop 1)
(push 1)
(assert (not (>  z3v96 z3v95)))
(check-sat)
(pop 1)
(push 1)
(assert (not (<  z3v96 z3v98)))
(check-sat)
(pop 1)
(push 1)
(assert (not (<  z3v96 z3v97)))
(check-sat)
(pop 1)
(push 1)
(assert (not (<  z3v96 z3v95)))
(check-sat)
(pop 1)
(push 1)
(assert (not (>  z3v96 z3v98)))
(check-sat)
(pop 1)
(push 1)
(assert (not (>  z3v96 z3v97)))
(check-sat)
(pop 1)
(push 1)
(assert (not (>  z3v96 z3v95)))
(check-sat)
(pop 1)
(push 1)
(assert (not (<= z3v96 z3v98)))
(check-sat)
(pop 1)
(push 1)
(assert (not (<= z3v96 z3v97)))
(check-sat)
(pop 1)
(push 1)
(assert (not (<= z3v96 z3v95)))
(check-sat)
(pop 1)
(push 1)
(assert (not (= z3v96 z3v98)))
(check-sat)
(pop 1)
(push 1)
(assert (not (= z3v96 z3v97)))
(check-sat)
(pop 1)
(push 1)
(assert (not (= z3v96 z3v95)))
(check-sat)
(pop 1)
(push 1)
(assert (not (not (= z3v96 z3v98))))
(check-sat)
(pop 1)
(push 1)
(assert (not (not (= z3v96 z3v97))))
(check-sat)
(pop 1)
(push 1)
(assert (not (not (= z3v96 z3v95))))
(check-sat)
(pop 1)
(push 1)
(assert (not (>= z3v96 z3v98)))
(check-sat)
(pop 1)
(push 1)
(assert (not (>= z3v96 z3v97)))
(check-sat)
(pop 1)
(push 1)
(assert (not (>= z3v96 z3v95)))
(check-sat)
(pop 1)
(push 1)
(assert (not (<= z3v96 z3v98)))
(check-sat)
(pop 1)
(push 1)
(assert (not (<= z3v96 z3v97)))
(check-sat)
(pop 1)
(push 1)
(assert (not (<= z3v96 z3v95)))
(check-sat)
(pop 1)
(push 1)
(assert (not (= z3v96 z3v98)))
(check-sat)
(pop 1)
(push 1)
(assert (not (= z3v96 z3v97)))
(check-sat)
(pop 1)
(push 1)
(assert (not (= z3v96 z3v95)))
(check-sat)
(pop 1)
(push 1)
(assert (not (<  z3v96 z3v98)))
(check-sat)
(pop 1)
(push 1)
(assert (not (<  z3v96 z3v97)))
(check-sat)
(pop 1)
(push 1)
(assert (not (<  z3v96 z3v95)))
(check-sat)
(pop 1)
(pop 1)
(push 1)
(assert true)
(assert (and (>= (z3f75 z3v93) 0) (>= (z3f75 z3v94) 0) (= z3v94 z3v93) (>= (z3f75 z3v94) 0) (z3f68 z3v63) (= (z3f70 z3v69) z3v69) (= (z3f70 z3v71) z3v71) (not (z3f68 z3v64)) (= (z3f70 z3v72) z3v72)))
(declare-fun z3v99 () Int)
(declare-fun z3v100 () Int)
(declare-fun z3v101 () Int)
(push 1)
(assert (not (= z3v100 1)))
(check-sat)
(pop 1)
(push 1)
(assert (not (= z3v100 (+ (z3f75 z3v94) z3v101))))
(check-sat)
(pop 1)
(push 1)
(assert (not (= z3v100 (+ (z3f75 z3v94) z3v99))))
(check-sat)
(pop 1)
(push 1)
(assert (not (= z3v100 (z3f75 z3v94))))
(check-sat)
(pop 1)
(push 1)
(assert (not (>= z3v100 0)))
(check-sat)
(pop 1)
(push 1)
(assert (not (>  z3v100 0)))
(check-sat)
(pop 1)
(push 1)
(assert (not (<  z3v100 0)))
(check-sat)
(pop 1)
(push 1)
(assert (not (not (= z3v100 0))))
(check-sat)
(pop 1)
(push 1)
(assert (not (<= z3v100 0)))
(check-sat)
(pop 1)
(push 1)
(assert (not (= z3v100 0)))
(check-sat)
(pop 1)
(push 1)
(assert (not (>= z3v100 z3v101)))
(check-sat)
(pop 1)
(push 1)
(assert (not (>= z3v100 z3v99)))
(check-sat)
(pop 1)
(push 1)
(assert (not (not (= z3v100 z3v101))))
(check-sat)
(pop 1)
(push 1)
(assert (not (not (= z3v100 z3v99))))
(check-sat)
(pop 1)
(push 1)
(assert (not (>  z3v100 z3v101)))
(check-sat)
(pop 1)
(push 1)
(assert (not (>  z3v100 z3v99)))
(check-sat)
(pop 1)
(push 1)
(assert (not (<  z3v100 z3v101)))
(check-sat)
(pop 1)
(push 1)
(assert (not (<  z3v100 z3v99)))
(check-sat)
(pop 1)
(push 1)
(assert (not (>  z3v100 z3v101)))
(check-sat)
(pop 1)
(push 1)
(assert (not (>  z3v100 z3v99)))
(check-sat)
(pop 1)
(push 1)
(assert (not (<= z3v100 z3v101)))
(check-sat)
(pop 1)
(push 1)
(assert (not (<= z3v100 z3v99)))
(check-sat)
(pop 1)
(push 1)
(assert (not (= z3v100 z3v101)))
(check-sat)
(pop 1)
(push 1)
(assert (not (= z3v100 z3v99)))
(check-sat)
(pop 1)
(push 1)
(assert (not (not (= z3v100 z3v101))))
(check-sat)
(pop 1)
(push 1)
(assert (not (not (= z3v100 z3v99))))
(check-sat)
(pop 1)
(push 1)
(assert (not (>= z3v100 z3v101)))
(check-sat)
(pop 1)
(push 1)
(assert (not (>= z3v100 z3v99)))
(check-sat)
(pop 1)
(push 1)
(assert (not (<= z3v100 z3v101)))
(check-sat)
(pop 1)
(push 1)
(assert (not (<= z3v100 z3v99)))
(check-sat)
(pop 1)
(push 1)
(assert (not (= z3v100 z3v101)))
(check-sat)
(pop 1)
(push 1)
(assert (not (= z3v100 z3v99)))
(check-sat)
(pop 1)
(push 1)
(assert (not (<  z3v100 z3v101)))
(check-sat)
(pop 1)
(push 1)
(assert (not (<  z3v100 z3v99)))
(check-sat)
(pop 1)
(pop 1)
(declare-fun z3v102 () Int)
(push 1)
(assert true)
(assert (= z3v102 z3v93))
(assert (>= (z3f75 z3v102) 0))
(assert (and (>= (z3f75 z3v93) 0) (>= (z3f75 z3v94) 0) (= z3v94 z3v93) (>= (z3f75 z3v94) 0) (z3f68 z3v63) (= (z3f70 z3v69) z3v69) (= (z3f70 z3v71) z3v71) (not (z3f68 z3v64)) (= (z3f70 z3v72) z3v72)))
(declare-fun z3v103 () Int)
(declare-fun z3v104 () Int)
(push 1)
(assert (not (= (z3f75 z3v102) 0)))
(check-sat)
(pop 1)
(push 1)
(assert (not (>  (z3f75 z3v102) 0)))
(check-sat)
(pop 1)
(push 1)
(assert (not (= z3v104 (z3f75 z3v102))))
(check-sat)
(pop 1)
(push 1)
(assert (not (= z3v103 (z3f75 z3v102))))
(check-sat)
(pop 1)
(push 1)
(assert (not (= (z3f75 z3v102) (- z3v104 1))))
(check-sat)
(pop 1)
(push 1)
(assert (not (= (z3f75 z3v102) (- z3v103 1))))
(check-sat)
(pop 1)
(push 1)
(assert (not (= (z3f75 z3v102) (+ z3v104 1))))
(check-sat)
(pop 1)
(push 1)
(assert (not (= (z3f75 z3v102) (+ z3v103 1))))
(check-sat)
(pop 1)
(pop 1)
(declare-fun z3v105 () Int)
(declare-fun z3v106 () Int)
(declare-fun z3v107 () Int)
(declare-fun z3v108 () Int)
(declare-fun z3f109 (Int) Int)
(declare-fun z3v110 () Int)
(declare-fun z3f111 (Int) Int)
(declare-fun z3f112 (Int) Int)
(declare-fun z3f113 (Int) Int)
(declare-fun z3v114 () Int)
(declare-fun z3f115 (Int) Int)
(declare-fun z3v116 () Int)
(declare-fun z3f117 (Int) Int)
(declare-fun z3f118 (Int) Bool)
(declare-fun z3f119 (Int Int) Int)
(declare-fun z3v120 () Int)
(push 1)
(assert true)
(assert (and (>= (z3f75 z3v74) 0) (= (z3f109 z3v108) z3v107) (= (z3f111 z3v108) z3v110) (= (z3f112 z3v108) z3v107) (= (z3f113 z3v108) z3v110) (>= (z3f75 z3v110) 0) (=> (>= z3v114 0) (= (z3f75 z3v110) (ite (<  (z3f75 z3v74) z3v114) 0 (- (z3f75 z3v74) z3v114)))) (=> (not (>= z3v114 0)) (= (z3f75 z3v110) (z3f75 z3v74))) (>= (z3f75 z3v107) 0) (=> (>= z3v114 0) (= (z3f75 z3v107) (ite (<  (z3f75 z3v74) z3v114) (z3f75 z3v74) z3v114))) (=> (not (>= z3v114 0)) (= (z3f75 z3v107) 0)) (>= (z3f75 z3v106) 0) (= (z3f115 z3v106) z3v114) (= (z3f117 z3v106) z3v116) (= (z3f75 z3v106) (+ 1 (z3f75 z3v116))) (= (z3f118 z3v106) false) (= z3v106 (z3f119 z3v114 z3v116)) (>= (z3f75 z3v106) 0) (= z3v106 z3v105) (>= (z3f75 z3v106) 0) (>= (z3f75 z3v116) 0) (>= (z3f75 z3v105) 0) (>= (z3f75 z3v120) 0) (= z3v120 z3v116) (>= (z3f75 z3v120) 0) (z3f68 z3v63) (= (z3f70 z3v69) z3v69) (= (z3f70 z3v71) z3v71) (not (z3f68 z3v64)) (= (z3f70 z3v72) z3v72)))
(assert (>= (z3f75 z3v106) 0))
(assert (>= (z3f75 z3v105) 0))
(pop 1)
(push 1)
(assert true)
(assert (and (>= (z3f75 z3v74) 0) (= (z3f109 z3v108) z3v107) (= (z3f111 z3v108) z3v110) (= (z3f112 z3v108) z3v107) (= (z3f113 z3v108) z3v110) (>= (z3f75 z3v110) 0) (=> (>= z3v114 0) (= (z3f75 z3v110) (ite (<  (z3f75 z3v74) z3v114) 0 (- (z3f75 z3v74) z3v114)))) (=> (not (>= z3v114 0)) (= (z3f75 z3v110) (z3f75 z3v74))) (>= (z3f75 z3v107) 0) (=> (>= z3v114 0) (= (z3f75 z3v107) (ite (<  (z3f75 z3v74) z3v114) (z3f75 z3v74) z3v114))) (=> (not (>= z3v114 0)) (= (z3f75 z3v107) 0)) (>= (z3f75 z3v106) 0) (= (z3f115 z3v106) z3v114) (= (z3f117 z3v106) z3v116) (= (z3f75 z3v106) (+ 1 (z3f75 z3v116))) (= (z3f118 z3v106) false) (= z3v106 (z3f119 z3v114 z3v116)) (>= (z3f75 z3v106) 0) (= z3v106 z3v105) (>= (z3f75 z3v106) 0) (>= (z3f75 z3v116) 0) (>= (z3f75 z3v105) 0) (>= (z3f75 z3v120) 0) (= z3v120 z3v116) (>= (z3f75 z3v120) 0) (z3f68 z3v63) (= (z3f70 z3v69) z3v69) (= (z3f70 z3v71) z3v71) (not (z3f68 z3v64)) (= (z3f70 z3v72) z3v72)))
(assert (>= (z3f75 z3v106) 0))
(assert (>= (z3f75 z3v105) 0))
(pop 1)
(declare-fun z3v121 () Int)
(push 1)
(assert true)
(assert (= z3v121 z3v116))
(assert (>= (z3f75 z3v121) 0))
(assert (and (>= (z3f75 z3v74) 0) (= (z3f109 z3v108) z3v107) (= (z3f111 z3v108) z3v110) (= (z3f112 z3v108) z3v107) (= (z3f113 z3v108) z3v110) (>= (z3f75 z3v110) 0) (=> (>= z3v114 0) (= (z3f75 z3v110) (ite (<  (z3f75 z3v74) z3v114) 0 (- (z3f75 z3v74) z3v114)))) (=> (not (>= z3v114 0)) (= (z3f75 z3v110) (z3f75 z3v74))) (>= (z3f75 z3v107) 0) (=> (>= z3v114 0) (= (z3f75 z3v107) (ite (<  (z3f75 z3v74) z3v114) (z3f75 z3v74) z3v114))) (=> (not (>= z3v114 0)) (= (z3f75 z3v107) 0)) (>= (z3f75 z3v106) 0) (= (z3f115 z3v106) z3v114) (= (z3f117 z3v106) z3v116) (= (z3f75 z3v106) (+ 1 (z3f75 z3v116))) (= (z3f118 z3v106) false) (= z3v106 (z3f119 z3v114 z3v116)) (>= (z3f75 z3v106) 0) (= z3v106 z3v105) (>= (z3f75 z3v106) 0) (>= (z3f75 z3v116) 0) (>= (z3f75 z3v105) 0) (>= (z3f75 z3v120) 0) (= z3v120 z3v116) (>= (z3f75 z3v120) 0) (z3f68 z3v63) (= (z3f70 z3v69) z3v69) (= (z3f70 z3v71) z3v71) (not (z3f68 z3v64)) (= (z3f70 z3v72) z3v72)))
(assert (>= (z3f75 z3v106) 0))
(assert (>= (z3f75 z3v105) 0))
(push 1)
(assert (not (and (>= (z3f75 z3v121) 0) (<  (z3f75 z3v121) (z3f75 z3v105)))))
(check-sat)
(pop 1)
(pop 1)
(declare-fun z3v122 () Int)
(push 1)
(assert true)
(assert (= z3v122 z3v116))
(assert (>= (z3f75 z3v122) 0))
(assert (and (>= (z3f75 z3v74) 0) (= (z3f109 z3v108) z3v107) (= (z3f111 z3v108) z3v110) (= (z3f112 z3v108) z3v107) (= (z3f113 z3v108) z3v110) (>= (z3f75 z3v110) 0) (=> (>= z3v114 0) (= (z3f75 z3v110) (ite (<  (z3f75 z3v74) z3v114) 0 (- (z3f75 z3v74) z3v114)))) (=> (not (>= z3v114 0)) (= (z3f75 z3v110) (z3f75 z3v74))) (>= (z3f75 z3v107) 0) (=> (>= z3v114 0) (= (z3f75 z3v107) (ite (<  (z3f75 z3v74) z3v114) (z3f75 z3v74) z3v114))) (=> (not (>= z3v114 0)) (= (z3f75 z3v107) 0)) (>= (z3f75 z3v106) 0) (= (z3f115 z3v106) z3v114) (= (z3f117 z3v106) z3v116) (= (z3f75 z3v106) (+ 1 (z3f75 z3v116))) (= (z3f118 z3v106) false) (= z3v106 (z3f119 z3v114 z3v116)) (>= (z3f75 z3v106) 0) (= z3v106 z3v105) (>= (z3f75 z3v106) 0) (>= (z3f75 z3v116) 0) (>= (z3f75 z3v105) 0) (>= (z3f75 z3v120) 0) (= z3v120 z3v116) (>= (z3f75 z3v120) 0) (z3f68 z3v63) (= (z3f70 z3v69) z3v69) (= (z3f70 z3v71) z3v71) (not (z3f68 z3v64)) (= (z3f70 z3v72) z3v72)))
(assert (>= (z3f75 z3v106) 0))
(assert (>= (z3f75 z3v105) 0))
(push 1)
(assert (not (>= (z3f75 z3v122) 0)))
(check-sat)
(pop 1)
(pop 1)
(push 1)
(assert true)
(assert (and (>= (z3f75 z3v74) 0) (>= (z3f75 z3v76) 0) (= z3v79 (- z3v78 z3v77)) (= z3v77 1) (= z3v78 (z3f75 z3v74)) (= z3v80 1) (>= (z3f75 z3v81) 0) (= z3v81 z3v76) (>= (z3f75 z3v81) 0) (z3f68 z3v63) (= (z3f70 z3v69) z3v69) (= (z3f70 z3v71) z3v71) (not (z3f68 z3v64)) (= (z3f70 z3v72) z3v72)))
(pop 1)
(push 1)
(assert true)
(assert (and (>= (z3f75 z3v74) 0) (>= (z3f75 z3v76) 0) (= z3v79 (- z3v78 z3v77)) (= z3v77 1) (= z3v78 (z3f75 z3v74)) (= z3v80 1) (>= (z3f75 z3v81) 0) (= z3v81 z3v76) (>= (z3f75 z3v81) 0) (z3f68 z3v63) (= (z3f70 z3v69) z3v69) (= (z3f70 z3v71) z3v71) (not (z3f68 z3v64)) (= (z3f70 z3v72) z3v72)))
(pop 1)
(declare-fun z3v123 () Int)
(push 1)
(assert true)
(assert (= z3v123 z3v76))
(assert (>= (z3f75 z3v123) 0))
(assert (and (>= (z3f75 z3v74) 0) (>= (z3f75 z3v76) 0) (= z3v79 (- z3v78 z3v77)) (= z3v77 1) (= z3v78 (z3f75 z3v74)) (= z3v80 1) (>= (z3f75 z3v81) 0) (= z3v81 z3v76) (>= (z3f75 z3v81) 0) (z3f68 z3v63) (= (z3f70 z3v69) z3v69) (= (z3f70 z3v71) z3v71) (not (z3f68 z3v64)) (= (z3f70 z3v72) z3v72)))
(push 1)
(assert (not (>= (z3f75 z3v123) 0)))
(check-sat)
(pop 1)
(pop 1)
(declare-fun z3v124 () Int)
(declare-fun z3v125 () Int)
(declare-fun z3v126 () Int)
(declare-fun z3v127 () Int)
(declare-fun z3v128 () Int)
(declare-fun z3v129 () Int)
(declare-fun z3v130 () Int)
(declare-fun z3v131 () Int)
(push 1)
(assert true)
(assert (and (not (z3f68 z3v126)) (not (z3f68 z3v126)) (= z3v126 z3v127) (= (z3f68 z3v126) (= z3v128 z3v63)) (= (z3f68 z3v127) (= z3v128 z3v63)) (>= (z3f75 z3v125) 0) (= (z3f115 z3v125) z3v129) (= (z3f117 z3v125) z3v130) (= (z3f75 z3v125) (+ 1 (z3f75 z3v130))) (= (z3f118 z3v125) false) (= z3v125 (z3f119 z3v129 z3v130)) (>= (z3f75 z3v125) 0) (= z3v125 z3v124) (>= (z3f75 z3v125) 0) (>= (z3f75 z3v130) 0) (>= (z3f75 z3v124) 0) (>= (z3f75 z3v131) 0) (= z3v131 z3v130) (>= (z3f75 z3v131) 0) (z3f68 z3v63) (= (z3f70 z3v69) z3v69) (= (z3f70 z3v71) z3v71) (not (z3f68 z3v64)) (= (z3f70 z3v72) z3v72)))
(assert (>= (z3f75 z3v125) 0))
(assert (>= (z3f75 z3v124) 0))
(pop 1)
(push 1)
(assert true)
(assert (and (not (z3f68 z3v126)) (not (z3f68 z3v126)) (= z3v126 z3v127) (= (z3f68 z3v126) (= z3v128 z3v63)) (= (z3f68 z3v127) (= z3v128 z3v63)) (>= (z3f75 z3v125) 0) (= (z3f115 z3v125) z3v129) (= (z3f117 z3v125) z3v130) (= (z3f75 z3v125) (+ 1 (z3f75 z3v130))) (= (z3f118 z3v125) false) (= z3v125 (z3f119 z3v129 z3v130)) (>= (z3f75 z3v125) 0) (= z3v125 z3v124) (>= (z3f75 z3v125) 0) (>= (z3f75 z3v130) 0) (>= (z3f75 z3v124) 0) (>= (z3f75 z3v131) 0) (= z3v131 z3v130) (>= (z3f75 z3v131) 0) (z3f68 z3v63) (= (z3f70 z3v69) z3v69) (= (z3f70 z3v71) z3v71) (not (z3f68 z3v64)) (= (z3f70 z3v72) z3v72)))
(assert (>= (z3f75 z3v125) 0))
(assert (>= (z3f75 z3v124) 0))
(pop 1)
(declare-fun z3v132 () Int)
(push 1)
(assert true)
(assert (= z3v132 z3v130))
(assert (>= (z3f75 z3v132) 0))
(assert (and (not (z3f68 z3v126)) (not (z3f68 z3v126)) (= z3v126 z3v127) (= (z3f68 z3v126) (= z3v128 z3v63)) (= (z3f68 z3v127) (= z3v128 z3v63)) (>= (z3f75 z3v125) 0) (= (z3f115 z3v125) z3v129) (= (z3f117 z3v125) z3v130) (= (z3f75 z3v125) (+ 1 (z3f75 z3v130))) (= (z3f118 z3v125) false) (= z3v125 (z3f119 z3v129 z3v130)) (>= (z3f75 z3v125) 0) (= z3v125 z3v124) (>= (z3f75 z3v125) 0) (>= (z3f75 z3v130) 0) (>= (z3f75 z3v124) 0) (>= (z3f75 z3v131) 0) (= z3v131 z3v130) (>= (z3f75 z3v131) 0) (z3f68 z3v63) (= (z3f70 z3v69) z3v69) (= (z3f70 z3v71) z3v71) (not (z3f68 z3v64)) (= (z3f70 z3v72) z3v72)))
(assert (>= (z3f75 z3v125) 0))
(assert (>= (z3f75 z3v124) 0))
(push 1)
(assert (not (and (>= (z3f75 z3v132) 0) (<  (z3f75 z3v132) (z3f75 z3v124)))))
(check-sat)
(pop 1)
(pop 1)
(declare-fun z3v133 () Int)
(push 1)
(assert true)
(assert (= z3v133 z3v130))
(assert (>= (z3f75 z3v133) 0))
(assert (and (not (z3f68 z3v126)) (not (z3f68 z3v126)) (= z3v126 z3v127) (= (z3f68 z3v126) (= z3v128 z3v63)) (= (z3f68 z3v127) (= z3v128 z3v63)) (>= (z3f75 z3v125) 0) (= (z3f115 z3v125) z3v129) (= (z3f117 z3v125) z3v130) (= (z3f75 z3v125) (+ 1 (z3f75 z3v130))) (= (z3f118 z3v125) false) (= z3v125 (z3f119 z3v129 z3v130)) (>= (z3f75 z3v125) 0) (= z3v125 z3v124) (>= (z3f75 z3v125) 0) (>= (z3f75 z3v130) 0) (>= (z3f75 z3v124) 0) (>= (z3f75 z3v131) 0) (= z3v131 z3v130) (>= (z3f75 z3v131) 0) (z3f68 z3v63) (= (z3f70 z3v69) z3v69) (= (z3f70 z3v71) z3v71) (not (z3f68 z3v64)) (= (z3f70 z3v72) z3v72)))
(assert (>= (z3f75 z3v125) 0))
(assert (>= (z3f75 z3v124) 0))
(push 1)
(assert (not (>= (z3f75 z3v133) 0)))
(check-sat)
(pop 1)
(pop 1)
(declare-fun z3v134 () Int)
(push 1)
(assert true)
(assert (and (z3f68 z3v126) (z3f68 z3v126) (= z3v126 z3v127) (= (z3f68 z3v126) (= z3v128 z3v63)) (= (z3f68 z3v127) (= z3v128 z3v63)) (>= (z3f75 z3v125) 0) (= (z3f115 z3v125) z3v129) (= (z3f117 z3v125) z3v130) (= (z3f75 z3v125) (+ 1 (z3f75 z3v130))) (= (z3f118 z3v125) false) (= z3v125 (z3f119 z3v129 z3v130)) (>= (z3f75 z3v125) 0) (= z3v125 z3v124) (>= (z3f75 z3v125) 0) (>= (z3f75 z3v130) 0) (>= (z3f75 z3v124) 0) (>= (z3f75 z3v134) 0) (= z3v134 z3v130) (>= (z3f75 z3v134) 0) (z3f68 z3v63) (= (z3f70 z3v69) z3v69) (= (z3f70 z3v71) z3v71) (not (z3f68 z3v64)) (= (z3f70 z3v72) z3v72)))
(assert (>= (z3f75 z3v125) 0))
(assert (>= (z3f75 z3v124) 0))
(pop 1)
(push 1)
(assert true)
(assert (and (z3f68 z3v126) (z3f68 z3v126) (= z3v126 z3v127) (= (z3f68 z3v126) (= z3v128 z3v63)) (= (z3f68 z3v127) (= z3v128 z3v63)) (>= (z3f75 z3v125) 0) (= (z3f115 z3v125) z3v129) (= (z3f117 z3v125) z3v130) (= (z3f75 z3v125) (+ 1 (z3f75 z3v130))) (= (z3f118 z3v125) false) (= z3v125 (z3f119 z3v129 z3v130)) (>= (z3f75 z3v125) 0) (= z3v125 z3v124) (>= (z3f75 z3v125) 0) (>= (z3f75 z3v130) 0) (>= (z3f75 z3v124) 0) (>= (z3f75 z3v134) 0) (= z3v134 z3v130) (>= (z3f75 z3v134) 0) (z3f68 z3v63) (= (z3f70 z3v69) z3v69) (= (z3f70 z3v71) z3v71) (not (z3f68 z3v64)) (= (z3f70 z3v72) z3v72)))
(assert (>= (z3f75 z3v125) 0))
(assert (>= (z3f75 z3v124) 0))
(pop 1)
(declare-fun z3v135 () Int)
(push 1)
(assert true)
(assert (= z3v135 z3v130))
(assert (>= (z3f75 z3v135) 0))
(assert (and (z3f68 z3v126) (z3f68 z3v126) (= z3v126 z3v127) (= (z3f68 z3v126) (= z3v128 z3v63)) (= (z3f68 z3v127) (= z3v128 z3v63)) (>= (z3f75 z3v125) 0) (= (z3f115 z3v125) z3v129) (= (z3f117 z3v125) z3v130) (= (z3f75 z3v125) (+ 1 (z3f75 z3v130))) (= (z3f118 z3v125) false) (= z3v125 (z3f119 z3v129 z3v130)) (>= (z3f75 z3v125) 0) (= z3v125 z3v124) (>= (z3f75 z3v125) 0) (>= (z3f75 z3v130) 0) (>= (z3f75 z3v124) 0) (>= (z3f75 z3v134) 0) (= z3v134 z3v130) (>= (z3f75 z3v134) 0) (z3f68 z3v63) (= (z3f70 z3v69) z3v69) (= (z3f70 z3v71) z3v71) (not (z3f68 z3v64)) (= (z3f70 z3v72) z3v72)))
(assert (>= (z3f75 z3v125) 0))
(assert (>= (z3f75 z3v124) 0))
(push 1)
(assert (not (and (>= (z3f75 z3v135) 0) (<  (z3f75 z3v135) (z3f75 z3v124)))))
(check-sat)
(pop 1)
(pop 1)
(declare-fun z3v136 () Int)
(push 1)
(assert true)
(assert (= z3v136 z3v130))
(assert (>= (z3f75 z3v136) 0))
(assert (and (z3f68 z3v126) (z3f68 z3v126) (= z3v126 z3v127) (= (z3f68 z3v126) (= z3v128 z3v63)) (= (z3f68 z3v127) (= z3v128 z3v63)) (>= (z3f75 z3v125) 0) (= (z3f115 z3v125) z3v129) (= (z3f117 z3v125) z3v130) (= (z3f75 z3v125) (+ 1 (z3f75 z3v130))) (= (z3f118 z3v125) false) (= z3v125 (z3f119 z3v129 z3v130)) (>= (z3f75 z3v125) 0) (= z3v125 z3v124) (>= (z3f75 z3v125) 0) (>= (z3f75 z3v130) 0) (>= (z3f75 z3v124) 0) (>= (z3f75 z3v134) 0) (= z3v134 z3v130) (>= (z3f75 z3v134) 0) (z3f68 z3v63) (= (z3f70 z3v69) z3v69) (= (z3f70 z3v71) z3v71) (not (z3f68 z3v64)) (= (z3f70 z3v72) z3v72)))
(assert (>= (z3f75 z3v125) 0))
(assert (>= (z3f75 z3v124) 0))
(push 1)
(assert (not (>= (z3f75 z3v136) 0)))
(check-sat)
(pop 1)
(pop 1)
(push 1)
(assert true)
(assert (and (>= (z3f75 z3v93) 0) (>= (z3f75 z3v94) 0) (= z3v94 z3v93) (>= (z3f75 z3v94) 0) (z3f68 z3v63) (= (z3f70 z3v69) z3v69) (= (z3f70 z3v71) z3v71) (not (z3f68 z3v64)) (= (z3f70 z3v72) z3v72)))
(pop 1)
(push 1)
(assert true)
(assert (and (>= (z3f75 z3v93) 0) (>= (z3f75 z3v94) 0) (= z3v94 z3v93) (>= (z3f75 z3v94) 0) (z3f68 z3v63) (= (z3f70 z3v69) z3v69) (= (z3f70 z3v71) z3v71) (not (z3f68 z3v64)) (= (z3f70 z3v72) z3v72)))
(pop 1)
(declare-fun z3v137 () Int)
(push 1)
(assert true)
(assert (= z3v137 z3v93))
(assert (>= (z3f75 z3v137) 0))
(assert (and (>= (z3f75 z3v93) 0) (>= (z3f75 z3v94) 0) (= z3v94 z3v93) (>= (z3f75 z3v94) 0) (z3f68 z3v63) (= (z3f70 z3v69) z3v69) (= (z3f70 z3v71) z3v71) (not (z3f68 z3v64)) (= (z3f70 z3v72) z3v72)))
(push 1)
(assert (not (>= (z3f75 z3v137) 0)))
(check-sat)
(pop 1)
(pop 1)
(push 1)
(assert true)
(assert (and (= z3v88 z3v87) (z3f68 z3v63) (= (z3f70 z3v69) z3v69) (= (z3f70 z3v71) z3v71) (not (z3f68 z3v64)) (= (z3f70 z3v72) z3v72)))
(pop 1)
(push 1)
(assert true)
(assert (and (z3f68 z3v63) (= (z3f70 z3v69) z3v69) (= (z3f70 z3v71) z3v71) (not (z3f68 z3v64)) (= (z3f70 z3v72) z3v72)))
(pop 1)
(push 1)
(assert true)
(assert (and (= z3v67 z3v66) (z3f68 z3v63) (= (z3f70 z3v69) z3v69) (= (z3f70 z3v71) z3v71) (not (z3f68 z3v64)) (= (z3f70 z3v72) z3v72)))
(pop 1)
(push 1)
(assert true)
(assert (and (z3f68 z3v63) (= (z3f70 z3v69) z3v69) (= (z3f70 z3v71) z3v71) (not (z3f68 z3v64)) (= (z3f70 z3v72) z3v72)))
(pop 1)
